NAME: Random_75_2
ELLAPSED_TIME_(ms): 160
TOUR_SIZE: 1559
TOUR_SECTION
0
27
42
2
13
9
32
74
21
20
60
73
17
28
63
23
14
45
70
6
65
25
64
8
37
48
47
46
22
61
18
34
35
54
11
58
16
5
69
40
41
50
71
68
57
7
43
1
33
56
3
55
31
66
30
67
53
15
24
29
26
49
12
44
39
4
52
19
36
62
72
10
38
59
51
0
EOF
